% demand
num_movements = 23;
loading_factor = [2000, 1450, 900, 950, 2000, 1250, 1650, 800, 1400, 850, 1850, 1000, 1850, 1400, 2000, 1950, 1700, 1350, 1250, 950, 1150, 1800, 1800];
pickup_time = [0, 0, 0, 0, 0, 1, 1, 1, 4, 4, 5, 5, 7, 7, 8, 8, 8, 8, 8, 8, 8, 9, 11];
delivery_time = [6, 8, 4, 4, 4, 4, 8, 8, 7, 8, 8, 8, 8, 8, 10, 11, 11, 11, 11, 11, 9, 11, 12];

% transporter definition
total_capacity = 11000;
num_decks = 4;
capacity = [3000, 3000, 1000, 4000];

% ways out of decks
num_ways_out = 2;
paths_out = array3d(decks, ways_out, decks, [
% ways out of deck d1
2, 4, 0, 0, 3, 4, 0, 0, 

% ways out of deck d2
4, 0, 0, 0, 0, 0, 0, 0,	

% ways out of deck d3
4, 0, 0, 0, 0, 0, 0, 0,	

% ways out of deck d4
0, 0, 0, 0,	0, 0, 0, 0,	

]);

